p cnf 15 24
15 -14 -7 0
-15 12 6 0
15 -10 -7 0
-15 7 -1 0
-14 13 1 0
14 -13 -1 0
14 -12 7 0
14 2 1 0
-13 -11 10 0
-13 -10 3 0
-13 -2 1 0
-12 -7 -4 0
12 7 1 0
12 6 -2 0
-12 -3 2 0
-11 -9 -6 0
11 7 -3 0
-11 6 1 0
10 -9 -7 0
-7 6 3 0
-7 5 -4 0
-5 4 -3 0
-4 3 -1 0
-3 2 -1 0
